(set-info :smt-lib-version 2.6)
(set-logic QF_SLIA)
(set-info :source |
Generated by: Joel Day, Thorsten Ehlers, Mitja Kulczynski, Federico Mora, Florin Manea, Dirk Nowotka, Danny Poulsen, Zhengyang Lu
Application: Test WOORPJE
Target solver: WOORPJE
Publications: Day, J. D., Ehlers, T., Kulczynski, M., Manea, F., Nowotka, D., & Poulsen, D. B. (2019). On solving word equations using SAT. In RP 2019
Description: Enriches a system of 30 word equations by suitable linear constraints
|)
(set-info :license "https://creativecommons.org/licenses/by/4.0/")
(set-info :category "random")
(set-info :status unknown)

(declare-fun H () String)
(declare-fun B () String)
(declare-fun F () String)
(declare-fun J () String)
(declare-fun D () String)
(assert (= (str.++  "beefcbdedcdeffddfc" J "ebfcebbdcefecafe")  (str.++  "beefcbdedc" B "cefecafe") ))
(assert (= (str.++  "cdfcbfaecea" J "dcedccddaedeaeacddfffca")  (str.++  "cdfcbfaeceadefdfedcedccddaedeaeacddfffca" "") ))
(assert (= (str.++  "ef" H "ccc" D "eeafdaa" J "ceabbefbaebbfaf")  (str.++  "ef" H "ccc" D "eea" F "aceedaceabbefbaebbfaf") ))
(assert (= (str.++  "efaaccededaddbadbcdecdb" D "bddbadbcdfccfb")  (str.++  "efaaccededaddbadbcdecdbdcbbddbadbcdfccfb" "") ))
(assert (= (str.++  "fcfaaedfccabaeaddcdbcedbfdddabdfaaaffdae" "")  (str.++  "fcfaaedfccabaeaddcdbcedbfdddabdfaaaf" F "e") ))
(assert (>=(* (str.len B) 4) 88))
(assert (<=(* (str.len D) 12) 204))
(assert (<=(* (str.len F) 7) 63))
(assert (<=(* (str.len J) 9) 576))
(assert (>=(* (str.len H) 3) 9))
(assert (<=(* (str.len H) 19) 114))
(check-sat)

(exit)
